************************************************************************
file with basedata            : mm45_.bas
initial value random generator: 1456577568
************************************************************************
projects                      :  1
jobs (incl. supersource/sink ):  12
horizon                       :  83
RESOURCES
  - renewable                 :  2   R
  - nonrenewable              :  2   N
  - doubly constrained        :  0   D
************************************************************************
PROJECT INFORMATION:
pronr.  #jobs rel.date duedate tardcost  MPM-Time
    1     10      0       11        5       11
************************************************************************
PRECEDENCE RELATIONS:
jobnr.    #modes  #successors   successors
   1        1          3           2   3   4
   2        3          2           5  11
   3        3          1           5
   4        3          3           7   8   9
   5        3          1           6
   6        3          1           9
   7        3          2          10  11
   8        3          2          10  11
   9        3          1          12
  10        3          1          12
  11        3          1          12
  12        1          0        
************************************************************************
REQUESTS/DURATIONS:
jobnr. mode duration  R 1  R 2  N 1  N 2
------------------------------------------------------------------------
  1      1     0       0    0    0    0
  2      1     2       4    5    6    6
         2     3       4    3    4    6
         3     8       3    3    1    4
  3      1     1       7    6    6    8
         2     7       7    4    5    7
         3    10       7    4    3    5
  4      1     4       7    9    8    8
         2     4       5    8    9    9
         3     7       5    6    6    7
  5      1     2       4    5   10    5
         2     4       4    3   10    3
         3     8       2    3   10    2
  6      1     4       7    6    4    8
         2     5       6    4    4    7
         3     7       3    3    3    5
  7      1     5       6    8    2    7
         2     8       6    5    1    4
         3     8       3    2    2    5
  8      1     3      10    4   10   10
         2    10      10    3    2   10
         3    10       9    4    6   10
  9      1     1       8    8    6    6
         2     7       6    8    4    4
         3     9       2    7    3    3
 10      1     2       6    5    9    6
         2     4       4    5    8    4
         3     6       3    2    8    4
 11      1     2       6    9   10    8
         2     7       6    8    9    7
         3    10       6    5    9    7
 12      1     0       0    0    0    0
************************************************************************
RESOURCEAVAILABILITIES:
  R 1  R 2  N 1  N 2
   16   14   51   55
************************************************************************
MAXIMAL LAGS:
from  to  type  delay
    1   12   ES      0
    1    2   ES      0
    2   12   ES      0
    1    3   ES      0
    3   12   ES      0
    1    4   ES      0
    4   12   ES      0
    1    5   ES      0
    5   12   ES      0
    1    6   ES      0
    6   12   ES      0
    1    7   ES      0
    7   12   ES      0
    1    8   ES      0
    8   12   ES      0
    1    9   ES      0
    9   12   ES      0
    1   10   ES      0
   10   12   ES      0
    1   11   ES      0
   11   12   ES      0
    1   12   ES      0
    2    5   SS     -6
    2    5   SE      6
    2    5   ES      3
    2    5   EE      4
    2   11   SS     -1
    2   11   SE     -1
    2   11   ES      7
    2   11   EE      5
    3    5   SS     -8
    3    5   SE    -10
    3    5   ES      2
    3    5   EE      1
    4    7   SS      8
    4    7   SE      0
    4    7   ES    -10
    4    7   EE      6
    4    8   SS    -10
    4    8   SE     -8
    4    8   ES      4
    4    8   EE     -3
    4    9   SS     -9
    4    9   SE     -9
    4    9   ES      3
    4    9   EE     -5
    5    6   SS    -11
    5    6   SE      7
    5    6   ES      5
    5    6   EE     -2
    6    9   SS    -12
    6    9   SE     -5
    6    9   ES     -3
    6    9   EE     -4
    7   10   SS      0
    7   10   SE     10
    7   10   ES     -1
    7   10   EE    -10
    7   11   SS     -7
    7   11   SE     -3
    7   11   ES    -10
    7   11   EE      5
    8   10   SS      6
    8   10   SE     -5
    8   10   ES      4
    8   10   EE      7
    8   11   SS      4
    8   11   SE     -3
   11    8   SE      0
    8   11   ES      0
    8   11   EE      7
************************************************************************
